sat
(model
(define-fun w1 () Int 5)
(define-fun w2 () Int 3)
(define-fun w3 () Int 2)
(define-fun w4 () Int 1)
(define-fun w5 () Int 4)
(define-fun w6 () Int 6)
(define-fun w7 () Int 7)
(define-fun w8 () Int 15)
(define-fun w9 () Int 9)
(define-fun w10 () Int 7)
(define-fun w11 () Int 3)
(define-fun w12 () Int 4)
(define-fun v1 () Int 60)
(define-fun v2 () Int 50)
(define-fun v3 () Int 70)
(define-fun v4 () Int 30)
(define-fun v5 () Int 50)
(define-fun v6 () Int 60)
(define-fun v7 () Int 80)
(define-fun v8 () Int 200)
(define-fun v9 () Int 100)
(define-fun v10 () Int 75)
(define-fun v11 () Int 65)
(define-fun v12 () Int 70)
(define-fun C () Int 15)
(define-fun x1 () Int 1)
(define-fun x2 () Int 0)
(define-fun x3 () Int 1)
(define-fun x4 () Int 1)
(define-fun x5 () Int 0)
(define-fun x6 () Int 0)
(define-fun x7 () Int 0)
(define-fun x8 () Int 0)
(define-fun x9 () Int 0)
(define-fun x10 () Int 0)
(define-fun x11 () Int 1)
(define-fun x12 () Int 1)
(define-fun threshold () Int 295)
)
